# ORCA Calculation generated by DSSC screening pipeline
%pal nprocs 4 end
! CAM-B3LYP def2-SVP
%maxcore 2000

%td
  nroots 10
end

* xyz 0 1
N           -2.60707572617868       -1.35761351704476        2.10816477227475
C           -2.75030373323370       -1.53558018523299        0.98444136655377
C           -3.01293670250979       -1.73465516702688       -0.38870894464996
C           -3.59998990003853       -0.77355035849226       -1.13499287156140
C           -3.95092032131353        0.54957578435147       -0.65963738763094
C           -3.11593548326168        1.37382959019009        0.08793158460838
C           -1.69615827721033        1.03057272576833        0.27861834668717
C           -0.95257555439272        0.60550030687321       -0.80773186444738
C            0.40306988274650        0.31292361585499       -0.70647825248305
C            1.16347400255056       -0.17739538107926       -1.86732462677115
O            0.65686336044072       -0.36943593780838       -2.96238646118477
C            2.56179704154098       -0.42047000772331       -1.56757781105970
C            3.08893762531741       -0.21247353843639       -0.33762433034576
C            4.48996499830570       -0.45394711317927        0.01538968203387
C            5.49927006947315       -0.46560526129397       -0.94986457925193
C            6.80947975502917       -0.69821723757663       -0.59679097429997
C            7.14759332332230       -0.92820427793593        0.73639739610110
O            8.44728974312274       -1.15683062170573        1.03804184338438
C            6.14966089476736       -0.91105281491104        1.70586117955043
C            4.83920979764081       -0.67251062848150        1.34830470121243
O            2.35203417306278        0.22839101732217        0.70792052020122
C            1.03606778629403        0.47834861776691        0.53005352408113
C            0.30855115972602        0.90777170430410        1.63367894923368
C           -1.04776481129887        1.16811341238234        1.52618381561440
O           -1.69525408577408        1.53767916969746        2.64936149453119
C           -3.57480707024485        2.63256694226857        0.55403722941575
C           -4.83112544024662        3.10636899166026        0.29924273314193
C           -5.69012943198090        2.31340045815756       -0.47833034678355
N           -6.93770005909400        2.58468529487839       -0.86395273729294
S           -7.48037412804687        1.36521549955172       -1.75277896754517
N           -6.17822163783842        0.42556824518825       -1.69523596692035
C           -5.24100163429697        1.04025333816717       -0.97229281243459
C           -2.64397581355889       -3.05935899924638       -0.94567145295541
O           -2.08173878718560       -3.92637092598460       -0.32906104867823
O           -2.99259917834580       -3.18985428315382       -2.23153665898181
H           -3.90984432504748       -1.01874272416798       -2.14223068508787
H           -1.40941724440571        0.50437487525148       -1.78162612025640
H            3.17406766025270       -0.80181034300423       -2.36704484868064
H            5.25978747503265       -0.27042955072892       -1.98277466871104
H            7.59442318805436       -0.70349951930684       -1.33571372241648
H            8.54971119990347       -1.30291558118346        1.98679898255747
H            6.40437786262118       -1.08684954034818        2.74259121603339
H            4.07091540497744       -0.66564120408092        2.10551047218726
H            0.79022312075446        1.01867720385057        2.59075283032081
H           -2.65018787021507        1.44073444745320        2.54149392384671
H           -2.88036610100380        3.25355301038634        1.10134607957666
H           -5.16337565046678        4.06729274981330        0.65620941642897
H           -2.70299355774046       -4.05238028201436       -2.56652691912454
*
