# ORCA Calculation generated by DSSC screening pipeline
%pal nprocs 4 end
! CAM-B3LYP def2-SVP
%maxcore 2000

%td
  nroots 10
end

* xyz 1 1
O            5.83934669861266        1.01653631822643       -2.36194501836847
P            6.62933782710458        0.01073648433623       -1.66088304578068
O            8.05721276697017        0.56114111288123       -1.12333202064952
O            7.09232512196335       -1.19770809409211       -2.60088234728356
C            5.84888886028190       -0.75053398036981       -0.22278304584183
C            4.56656837389989       -0.46684501486211        0.00312234440740
C            3.73713477818989       -0.97922429610958        1.06488114273649
C            4.13691259802129       -1.79732980933607        2.08789329951885
S            2.87259615968577       -2.25191611157323        3.17180020020210
C            1.74998910257637       -1.32912245002786        2.24291279792552
S            0.05726278232488       -1.04723019653993        2.36872854885999
C            0.12758382958008       -0.05216120976745        0.92309807474719
C           -1.07766979285695        0.61738695369335        0.45896738693885
C           -1.00443872886366        1.97339159098040        0.13954681978797
C           -2.18909822888211        2.68513605954787       -0.18841693651079
C           -2.23622964638660        4.04880270363372       -0.54172186727214
O           -1.11469862353014        4.80397995034311       -0.66782387537308
C           -3.45257472466313        4.67430427876008       -0.77705543654609
C           -4.64303777396394        3.96978697344039       -0.67085227240697
O           -5.84451343583622        4.55591021861174       -0.89115153768753
C           -4.62550286631425        2.61599645629861       -0.33539595597638
C           -3.41786399846318        1.98830046417564       -0.10725763888950
O           -3.46099908949714        0.66844111129606        0.19522237941146
C           -2.30492592505247       -0.03524171579123        0.42213877362326
C           -2.54180010184767       -1.44963758558602        0.62151512282351
C           -3.70194406409589       -1.85855770105437        1.28357666344303
C           -3.98308887184990       -3.19975831156768        1.48605856179119
O           -5.12299884270810       -3.52671815968393        2.15692184542610
C           -3.10379476785099       -4.16463045920206        1.00971716455604
C           -1.97006352437472       -3.77616482605035        0.31491671662467
C           -1.68220224729245       -2.44016101057903        0.10204249926037
O           -0.60460075474488       -2.06181141993703       -0.64529621224692
C            1.38754315441593        0.05080142696246        0.41823592539432
C            2.33595198827039       -0.69642223770991        1.15655077244189
H            8.01600273635186        1.51458463286770       -1.06869762036625
H            7.80516893690902       -1.71086915152926       -2.22012532052393
H            6.42984886072790       -1.41087667533582        0.40043888627857
H            4.08346106439662        0.20844778918093       -0.69055010424282
H            5.12339858220584       -2.16845877542596        2.28253603980603
H           -0.04832306212288        2.46909837750512        0.21108281473263
H           -0.33218684220204        4.25969847427263       -0.52121620895618
H           -3.44480443965099        5.72067494194815       -1.04362345955658
H           -5.71795427103663        5.48491564047569       -1.12029118845810
H           -5.54729798229816        2.06571952163962       -0.26110532815105
H           -4.38570804599996       -1.11789715994347        1.66317816363764
H           -5.19355745960840       -4.48593726026314        2.22828660903373
H           -3.30672023336089       -5.21515031685992        1.16515107085615
H           -1.30443359440897       -4.53059103703962       -0.08387847023374
H           -0.15373173601189       -2.84789922364261       -0.97687546020699
H            1.62022945327262        0.60506170882764       -0.47236225273210
*
