# ORCA Calculation generated by DSSC screening pipeline
%pal nprocs 4 end
! B3LYP def2-SVP Opt
%maxcore 2000

* xyz 1 1
O            7.07708538634330       -0.69688306393724       -5.08946122272641
C            6.75648067933315       -0.60739505358773       -3.92675796284655
O            7.68155035224653       -0.57469610741375       -2.94395814826822
C            5.37856620693190       -0.52600728140246       -3.45279989510962
C            5.05261305320381       -0.40997602455699       -2.15554381810556
C            3.71932210890197       -0.32830188561941       -1.62280545139839
C            2.54649891879050       -0.39302052336056       -2.33998602912974
S            1.15369886143751       -0.24913843772123       -1.36071288818562
C            2.13457754652908       -0.10087948049566        0.07847454042924
C            1.55955568543317        0.02175587958177        1.38242671577399
S            2.56140404232976       -0.23478084035661        2.78852833662081
C            1.21525185847989       -0.01280984624017        3.83440808607380
C            0.07061498390561        0.23375442438586        3.15285643517339
C            0.25270518091355        0.25759573495568        1.74683685376944
C           -0.82832451472630        0.59252380699399        0.81206373520766
C           -0.67310024470550        1.68591039985146       -0.03815632808442
C           -1.75614275387074        2.07680859541813       -0.86327525953330
C           -1.70117828333252        3.16384363668913       -1.75967297089736
O           -0.52668372676488        3.84039914498564       -1.85784226782248
C           -2.81280632016976        3.51533971911474       -2.50500009738501
C           -4.00133157242785        2.80236124168626       -2.37763698530666
O           -5.06145270858940        3.19661359221366       -3.12605886703553
C           -4.07910490121860        1.72032150574556       -1.50536199277823
C           -2.96687663810821        1.36158705995366       -0.76351276237796
O           -3.08490660144598        0.29422515652107        0.05605806668494
C           -2.03214036788631       -0.10024723992339        0.83389845476725
C           -2.29306457194789       -1.27412670644355        1.64142063086474
C           -1.29580798066047       -2.23485192115252        1.84451755099409
C           -1.51477359847017       -3.34892925032580        2.63493232393517
O           -0.54906117664131       -4.28659306620371        2.84487750853315
C           -2.75857140428077       -3.53613445240602        3.23098568801396
C           -3.76133078193452       -2.60805378810122        3.02176938798195
C           -3.55251829106064       -1.48414405111204        2.23655980481960
O           -4.52742392586430       -0.54824861831808        2.07026729357945
C            3.46284142469740       -0.17123796965704       -0.23547287496917
H            8.56444459852939       -0.63276191612777       -3.33914777364353
H            4.63589941451864       -0.56397877305168       -4.23468230717323
H            5.84967419400973       -0.37253248788591       -1.42488574333623
H            2.42572899874905       -0.50626745670023       -3.39825334520273
H            1.36048754375647       -0.07506211575904        4.89423595852423
H           -0.88217515235748        0.40520517716084        3.61945366672507
H            0.23000837525801        2.27068736770947       -0.03647359704642
H           -0.61884083364113        4.55297871854002       -2.50168747909314
H           -2.77963397238146        4.34682578409070       -3.19297005191514
H           -5.81809429664572        2.62595828669651       -2.94491034574362
H           -4.99058748645520        1.15333055841326       -1.39385179335869
H           -0.34501599666525       -2.11401168517772        1.34626287626502
H            0.25494362638616       -4.03633175311259        2.37419021902079
H           -2.92395204754598       -4.40693276236363        3.84329421924870
H           -4.72831477442799       -2.75561127582283        3.48507823756974
H           -5.32054076893041       -0.82422837005553        2.54594907648333
H            4.23980365249300       -0.10384958633323        0.50554959144427
*
