# ORCA Calculation generated by DSSC screening pipeline
%pal nprocs 4 end
! CAM-B3LYP def2-SVP
%maxcore 2000

%td
  nroots 10
end

* xyz 0 1
N           -3.69856703597211       -1.70382396989336        1.43801360567623
C           -3.33745840832602       -1.52955114604896        0.36372492714042
C           -2.97791258484787       -1.26563288417454       -0.97638316038345
C           -3.04615464839594       -0.01135245463993       -1.47425409439268
C           -3.41625456712519        1.15469589867604       -0.69769019079467
C           -2.91021316935836        1.45970665004671        0.56125314870312
C           -1.74237190591180        0.73981226782229        1.09980818789945
C           -0.64056615979951        0.54831943455662        0.28751592869208
C            0.53628097887321       -0.02985249110547        0.75789460535744
C            1.68510525333687       -0.20713627376562       -0.14288159166182
O            1.63492229991030        0.08204948705155       -1.32640225486358
C            2.87396804739179       -0.74719833558993        0.53683118388633
C            4.14007654394520       -0.88586337674159       -0.19482097961284
C            5.34638333613737       -0.55756383029065        0.41965621696020
C            6.54156731397176       -0.66829940625507       -0.26255009822254
C            6.55486830155792       -1.11148900030644       -1.58047168620220
O            7.70727030159232       -1.23472010108464       -2.29022900145223
C            5.35392414939939       -1.43830288884916       -2.20320134939554
C            4.16285935462921       -1.32327336154994       -1.51831983854015
C            2.79082997605456       -1.09138747956154        1.84040487320540
O            1.71445626101804       -0.96702036992426        2.62976902647798
C            0.59813271686719       -0.41877419715102        2.10125850728416
C           -0.50495632594212       -0.25300072553596        2.93088503086637
C           -1.67317602260736        0.31034365357226        2.44519523106566
O           -2.70783269724313        0.42109369757520        3.30018757965056
C           -3.39822207088659        2.57829315639114        1.28360961704082
C           -4.36180912711354        3.41454640199380        0.79400659390185
C           -4.86729610198467        3.15856830228367       -0.49076357752299
N           -5.78460121419358        3.85042235386326       -1.16756762003899
S           -6.00695296593002        3.15531515947476       -2.59567816856965
N           -4.96659581343626        1.94085816778100       -2.43807443251651
C           -4.38162715037060        2.03373683301321       -1.24314964905687
C           -2.58681521214855       -2.43491485315615       -1.80063147681011
O           -2.47854221689195       -3.55852930474016       -1.38420991458407
O           -2.35117931549946       -2.10645206375221       -3.07729776240476
H           -2.90491422975438        0.13662467309481       -2.53638075002578
H           -0.65370748454548        0.87474623738798       -0.74242150883664
H            5.34893638085738       -0.18871575368207        1.43481933659286
H            7.47070218037362       -0.40235268606194        0.22518236990518
H            8.45852352515431       -0.96823496088560       -1.74646462830249
H            5.37779716271684       -1.77783631695820       -3.22624066168273
H            3.23867530044797       -1.57411959408882       -2.01208765487604
H            3.62034081364656       -1.53012702596203        2.37840405590221
H           -0.46241832349260       -0.57464519503084        3.95802553720936
H           -3.53859155773998        0.54075412670579        2.82161579081861
H           -2.95768528443375        2.78957328907830        2.24711273430290
H           -4.72002839215283        4.26347879340258        1.35272326794911
H           -2.07917021176796       -2.89277253700145       -3.57528430574142
*
