# ORCA Calculation generated by DSSC screening pipeline
%pal nprocs 4 end
! B3LYP def2-SVP Opt
%maxcore 2000

* xyz 0 1
O           -3.39486047597661        1.07357669012346        3.37286561910466
C           -4.48965659995782        0.73418027813707        2.99442118607614
O           -5.57721721192847        0.81761113750861        3.77870266009184
C           -4.81103954195019        0.19035599252814        1.67060295818976
C           -3.84305340764882        0.04412634521071        0.75546820655718
C           -4.00776003870678       -0.44134993228319       -0.59634611495437
C           -2.90102829376116       -0.66977258943995       -1.41422511879996
C           -1.52045180183114       -0.55239432912466       -0.90058131707952
C           -0.63966491480453        0.32456009215964       -1.49660451633417
C            0.68072820699601        0.44366617621264       -1.05963471852014
C            1.60981554607210        1.37342456040927       -1.66788170226598
O            1.36740586995251        2.13055312879469       -2.60948318480850
C            2.95187532689590        1.37882056768081       -1.08679964743301
O            3.78471652898570        2.26257092308586       -1.68282016308809
C            3.29967053336830        0.54887742268324       -0.05891893490695
C            4.60885007320752        0.44856062472509        0.57841559775665
C            4.85418857109431       -0.58040903053065        1.49563408879466
C            6.07923285338984       -0.70877958824379        2.10845059958449
C            7.10150876779836        0.19499069547146        1.82425373329331
O            8.29626075524890        0.03441798124220        2.44516690700510
C            6.86616536110754        1.22428569454245        0.91874833315037
C            5.63823824955310        1.35029731051602        0.30285082953370
O            2.38249534896285       -0.31213386242198        0.46632235604811
C            1.12662499528309       -0.36336201788567       -0.00351982050430
C            0.25184358468328       -1.26972321452809        0.59164218939418
C           -1.05784114391902       -1.36936014882763        0.15763538503428
O           -1.84390049877058       -2.29105564232046        0.75234845725540
C           -3.04387636209283       -1.02841150544284       -2.77497914383520
C           -4.26329231154678       -1.19857902250426       -3.36531373855582
C           -5.40672143656314       -1.01267769459476       -2.57149362738973
N           -6.67891635177459       -1.14003650047332       -2.94998084185123
S           -7.62496151267426       -0.81679643054048       -1.69748585251036
N           -6.48148953093150       -0.50253014134214       -0.61200060526792
C           -5.28626237801905       -0.63563294336294       -1.18670238699384
H           -5.33576322692234        1.18110924799379        4.64441330701225
H           -5.83995160940637       -0.06839739545684        1.48365894195099
H           -2.83955574370111        0.33866041769435        1.04114292151199
H           -0.96138333065742        0.96010885258948       -2.30782488271967
H            3.22940078343515        2.67365539213385       -2.38415454500423
H            4.07115522554588       -1.28638870876328        1.72152808364608
H            6.27104872059882       -1.50298421020458        2.81177406385468
H            8.91167720287309        0.72126007434705        2.16072173102736
H            7.65408138492036        1.93201084882541        0.69616795429858
H            5.47663676145980        2.15444404183388       -0.39330185793838
H            0.59097430304604       -1.89997997933563        1.39637033438226
H           -2.74479251298434       -2.24323671975503        0.40429132161632
H           -2.14196595943044       -1.17394025689908       -3.35043595138779
H           -4.36918775852324       -1.46819063217249       -4.40310609402657
*
