# ORCA Calculation generated by DSSC screening pipeline
%pal nprocs 4 end
! B3LYP def2-SVP Opt
%maxcore 2000

* xyz 0 1
N           -3.56075118692436        1.85047478843446       -3.64299438488209
C           -3.85493822921772        1.28240449043835       -2.69201014055830
C           -4.20330379188588        0.59539123812427       -1.50751216375809
C           -3.49684841335637        0.80907035213975       -0.38027955772436
C           -3.81242506060995        0.29183799501140        0.93354400873518
C           -2.82145417555216        0.01209724340635        1.86836430115800
C           -1.40414020389981        0.10192323436713        1.47637895203696
C           -0.95946082411928       -0.55258138643907        0.34146701569472
C            0.37225968807285       -0.50388259925745       -0.05906691944444
C            0.83308105039493       -1.22461556334638       -1.25888105178298
O            0.09420284542035       -1.90556941307318       -1.95014243314130
C            2.25076781996150       -1.04624080874895       -1.51804764375741
C            3.04807032777191       -0.29194410024434       -0.72614208815779
C            4.48444923410516       -0.09263923844066       -0.93899523270715
C            5.28420674800254        0.34518814222744        0.11500628385855
C            6.64323111913791        0.52494520317846       -0.06203262867592
C            7.22645120533801        0.27673702765403       -1.29168705037751
O            8.56430776127159        0.43312327229171       -1.53752721622228
C            6.43122788369006       -0.15450871554958       -2.36605381378335
O            6.98587110268795       -0.39159848498813       -3.57760504519469
C            5.07289649436301       -0.33352945407655       -2.18117227658239
O            2.58637369948592        0.34453805025116        0.37741757013654
C            1.27965007431759        0.23900630029029        0.70332180474221
C            0.84962260247601        0.90954530195958        1.84446511022767
C           -0.47668798216898        0.84500948857855        2.23723435146434
O           -0.83532444349595        1.54564682755164        3.33688262322974
C           -3.14950144310978       -0.42949412415677        3.17401924632546
C           -4.44066633600012       -0.58301831493422        3.59745958840247
C           -5.46997937905352       -0.28085021259035        2.69194310814725
N           -6.78702741581653       -0.33221514418140        2.90115017373331
S           -7.54266120759851        0.12284592269973        1.56108236564861
N           -6.25422483245482        0.40423804384356        0.64731874487397
C           -5.15529184834444        0.14637422541608        1.35557296440330
C           -5.32421695883588       -0.38094574402173       -1.65541505053122
O           -6.31975243462072       -0.20184551071844       -2.29942045503853
O           -5.04046677763802       -1.54549618042097       -1.05181780952362
H           -2.63166132730219        1.46026778537444       -0.43766906094941
H           -1.64042753509250       -1.14394211471322       -0.25270203402081
H            2.65686010947539       -1.56175525105270       -2.37118694850745
H            4.84183246000161        0.53648090122065        1.07890219249284
H            7.25797966907137        0.86012897623865        0.76206005242710
H            9.00897013390610        0.73563119544257       -0.73830663187224
H            7.93460019832007       -0.21214100079159       -3.51784511110515
H            4.48929348003167       -0.64439381978547       -3.03065262885579
H            1.54540514481725        1.49119333751211        2.42615674433587
H           -1.78460688324595        1.45608316847220        3.49903637140316
H           -2.34045661034172       -0.69361735920494        3.84116306412276
H           -4.68146192034291       -0.93078845377912        4.58852208660242
H           -5.75386963109461       -2.18257151760450       -1.21363534704785
*
