# ORCA Calculation generated by DSSC screening pipeline
%pal nprocs 4 end
! B3LYP def2-SVP Opt
%maxcore 2000

* xyz 0 1
N            9.66276283684275        0.22637637003413       -0.04614152453695
C            8.63590437710877        0.58718489527853       -0.40802439637511
C            7.37672240656146        1.03127252448515       -0.86442734546768
C            6.18923567633673        0.57653175853270       -0.39117656316801
C            5.94895238715571       -0.39411725973363        0.63016022732082
C            6.87748808021131       -1.02965101908238        1.42248103549688
S            6.21111787993732       -2.14054647953489        2.54893864530664
C            4.62717449963671       -1.77552936326339        1.96980215439827
S            3.05677804284404       -2.34294799911917        2.38147170814038
C            2.35606201829025       -1.29765388299433        1.14224522757921
C            0.91847727798568       -1.22165652829689        0.92031894984200
C            0.34843276044333        0.01607055862676        0.67809823389529
C           -1.01509302186254        0.16312053169240        0.43101482045282
C           -1.61710001228973        1.45791516129232        0.18329509753037
O           -1.02566413645622        2.53862302408004        0.14745577946297
C           -3.06091221410671        1.43666884555754       -0.04396823328667
O           -3.57934675017218        2.66810293410156       -0.26650440546675
C           -3.77985944860579        0.27413822476994       -0.04037211864196
C           -5.21159825052100        0.12805582087256       -0.27541762478773
C           -5.77115138763212       -1.14691595668313       -0.39210163429581
C           -7.12269768282045       -1.30996264142300       -0.61345208705689
C           -7.95789480841500       -0.20673006912903       -0.72267236420413
O           -9.28287662084851       -0.36665330007840       -0.93748375013772
C           -7.40204774731850        1.07704023846367       -0.60679156612527
O           -8.26918188104944        2.13510486820800       -0.72196727804967
C           -6.05134405965145        1.24041603442352       -0.38693867860902
O           -3.15537557236597       -0.91476752946279        0.19394245682732
C           -1.83586478381413       -0.97409169527991        0.42571792152803
C           -1.27676986688752       -2.22608229390097        0.66684104347952
C            0.07830848004850       -2.36332370789845        0.91410305038436
O            0.53431003775357       -3.61467377004830        1.11188112771508
C            3.30928845808539       -0.56581503022588        0.49576119195740
C            4.61967824690674       -0.83252245814010        0.95464943453284
C            7.43310216924515        2.05216268938349       -1.93808411971667
O            8.44623944832514        2.49863516211378       -2.40910077649609
O            6.21502026145224        2.44609110380516       -2.35074519286862
H            5.29939137288360        0.99327393521214       -0.84388503740890
H            7.94093857280208       -0.89858306918423        1.40973149707304
H            0.95275549373698        0.91000929353640        0.69218785096587
H           -2.79608365268512        3.26319827662781       -0.21946712610786
H           -5.13752771411096       -2.01469402763684       -0.31206657239110
H           -7.55693332224851       -2.29213848440118       -0.70657540229997
H           -9.68808142297940        0.51118529756342       -0.98201675770564
H           -7.77692768494688        2.95892007390502       -0.63914971628660
H           -5.64525249130059        2.23442953741494       -0.29855310524463
H           -1.89843409056091       -3.10578874747541        0.65937168908823
H            1.48990890522717       -3.62203857198568        1.26283986131478
H            3.07410800906728        0.11886069609638       -0.29817488335804
H            6.31186292476265        3.11349702890248       -3.04738774420656
*
